(set-logic QF_NIA)
(set-info :source |
     Constraint systems stating that a matrix interpretation is
     compatible with a rewriting system (weakly compatible with
     all rules, strictly compatible with at least one).

     Contributed by Johannes Waldmann at HTKW Leipzig.
   |)
(set-info :smt-lib-version 2.0)
(set-info :category "crafted")
(set-info :status sat)
(declare-fun n0 () Int)
(assert (>= n0 0))
(declare-fun n1 () Int)
(assert (>= n1 0))
(assert (>= n1 1))
(declare-fun n2 () Int)
(assert (>= n2 0))
(declare-fun n3 () Int)
(assert (>= n3 0))
(assert (>= n3 1))
(declare-fun n4 () Int)
(assert (>= n4 0))
(declare-fun n5 () Int)
(assert (>= n5 0))
(assert (>= n5 1))
(declare-fun n6 () Int)
(assert (>= n6 0))
(declare-fun n7 () Int)
(assert (>= n7 0))
(assert (>= n7 1))
(declare-fun n8 () Int)
(assert (= n8 (* n3 n2)))
(declare-fun n9 () Int)
(assert (= n9 (+ n2 n8)))
(declare-fun n10 () Int)
(assert (= n10 (* n3 n3)))
(declare-fun n11 () Int)
(assert (= n11 (* n5 n4)))
(declare-fun n12 () Int)
(assert (= n12 (+ n4 n11)))
(declare-fun n13 () Int)
(assert (= n13 (* n5 n5)))
(declare-fun n14 () Int)
(assert (= n14 (* n7 n6)))
(declare-fun n15 () Int)
(assert (= n15 (+ n6 n14)))
(declare-fun n16 () Int)
(assert (= n16 (* n7 n7)))
(declare-fun n17 () Int)
(assert (= n17 (* n1 n0)))
(declare-fun n18 () Int)
(assert (= n18 (+ n0 n17)))
(declare-fun n19 () Int)
(assert (= n19 (* n1 n1)))
(declare-fun n20 () Int)
(assert (= n20 (* n16 n12)))
(declare-fun n21 () Int)
(assert (= n21 (+ n15 n20)))
(declare-fun n22 () Int)
(assert (= n22 (* n16 n13)))
(declare-fun n23 () Int)
(assert (= n23 (* n10 n9)))
(declare-fun n24 () Int)
(assert (= n24 (+ n9 n23)))
(declare-fun n25 () Int)
(assert (= n25 (* n10 n10)))
(declare-fun n26 () Int)
(assert (= n26 (* n10 n12)))
(declare-fun n27 () Int)
(assert (= n27 (+ n9 n26)))
(declare-fun n28 () Int)
(assert (= n28 (* n10 n13)))
(declare-fun n29 () Int)
(assert (= n29 (* n10 n15)))
(declare-fun n30 () Int)
(assert (= n30 (+ n9 n29)))
(declare-fun n31 () Int)
(assert (= n31 (* n10 n16)))
(declare-fun n32 () Int)
(assert (= n32 (* n19 n12)))
(declare-fun n33 () Int)
(assert (= n33 (+ n18 n32)))
(declare-fun n34 () Int)
(assert (= n34 (* n19 n13)))
(declare-fun n35 () Int)
(assert (= n35 (* n13 n15)))
(declare-fun n36 () Int)
(assert (= n36 (+ n12 n35)))
(declare-fun n37 () Int)
(assert (= n37 (* n13 n16)))
(declare-fun n38 () Int)
(assert (= n38 (* n31 n9)))
(declare-fun n39 () Int)
(assert (= n39 (+ n30 n38)))
(declare-fun n40 () Int)
(assert (= n40 (* n31 n10)))
(declare-fun n41 () Int)
(assert (= n41 (* n37 n9)))
(declare-fun n42 () Int)
(assert (= n42 (+ n36 n41)))
(declare-fun n43 () Int)
(assert (= n43 (* n37 n10)))
(assert (>= n39 n42))
(assert (>= n40 n43))
(declare-fun n44 () Int)
(assert (= n44 (* n10 n33)))
(declare-fun n45 () Int)
(assert (= n45 (+ n9 n44)))
(declare-fun n46 () Int)
(assert (= n46 (* n10 n34)))
(assert (>= n45 n27))
(assert (>= n46 n28))
(declare-fun n47 () Int)
(assert (= n47 (* n19 n15)))
(declare-fun n48 () Int)
(assert (= n48 (+ n18 n47)))
(declare-fun n49 () Int)
(assert (= n49 (* n19 n16)))
(assert (>= n48 n21))
(assert (>= n49 n22))
(declare-fun n50 () Int)
(assert (= n50 (* n25 n9)))
(declare-fun n51 () Int)
(assert (= n51 (+ n24 n50)))
(declare-fun n52 () Int)
(assert (= n52 (* n25 n10)))
(declare-fun n53 () Int)
(assert (= n53 (* n19 n27)))
(declare-fun n54 () Int)
(assert (= n54 (+ n18 n53)))
(declare-fun n55 () Int)
(assert (= n55 (* n19 n28)))
(assert (>= n51 n54))
(assert (>= n52 n55))
(assert (>= n21 n30))
(assert (>= n22 n31))
(declare-fun n56 () Int)
(assert (= n56 (* n16 n30)))
(declare-fun n57 () Int)
(assert (= n57 (+ n15 n56)))
(declare-fun n58 () Int)
(assert (= n58 (* n16 n31)))
(assert (>= n21 n57))
(assert (>= n22 n58))
(declare-fun n59 () Int)
(assert (= n59 (* n16 n33)))
(declare-fun n60 () Int)
(assert (= n60 (+ n15 n59)))
(declare-fun n61 () Int)
(assert (= n61 (* n16 n34)))
(assert (>= n60 n24))
(assert (>= n61 n25))
(assert (or (> n39 n42) (> n45 n27) (> n48 n21) (> n51 n54) (> n21 n30) (> n21 n57) (> n60 n24)))
(check-sat)
(exit)
